p cnf 10 14
5 -7 -10 -1 -4 6 -3 -2 0
8 -4 -2 7 -9 0
-4 3 -2 8 -1 -5 10 6 0
-1 8 -4 0
5 -3 -6 0
6 -5 -3 -7 8 0
10 -1 -3 -5 8 0
5 -10 1 -2 9 -4 -8 -7 -3 0
3 -8 -6 0
-5 -4 -8 2 1 7 -9 0
-2 -4 -6 -3 0
1 -8 -5 -6 3 -2 -10 9 0
7 -4 10 -2 0
-1 -3 8 -5 4 6 9 -10 -7 0
